#Instance                 #Cost    #CV #Permutation
rbg040a.tw                 2543.00           0  2 1 3 5 4 7 6 9 8 10 11 13 14 15 12 21 16 17 18 19 20 22 27 24 25 23 26 30 28 31 29 35 32 38 37 34 33 40 36 39 
rbg041a.tw                 2820.00           0  2 1 3 5 4 6 7 9 8 11 10 14 12 16 17 19 21 13 15 22 18 20 23 27 24 26 25 29 30 28 31 32 38 37 34 33 35 41 36 39 40 
rbg042a.tw                 2974.00           0  1 2 3 4 6 7 8 5 11 9 20 22 13 15 12 21 14 10 17 18 19 16 27 23 25 24 33 36 31 26 38 28 29 30 37 34 32 35 40 39 41 42 
rbg048a.tw                 9585.00           0  1 2 3 4 5 15 7 6 10 9 8 11 13 12 14 17 16 18 21 20 19 22 24 23 25 27 26 28 30 29 31 34 32 35 33 36 37 48 41 38 39 40 45 44 42 43 47 46 
rbg049a.tw                10254.00           0  1 2 3 4 5 6 10 8 7 9 11 12 14 13 15 16 18 17 19 20 22 21 24 25 23 27 26 29 28 30 32 31 33 34 35 37 36 39 40 38 42 41 43 48 46 45 44 49 47 
rbg050a.tw                 3308.00           0  2 1 3 46 32 4 5 15 6 8 7 9 10 11 13 12 14 16 17 18 19 20 22 21 24 23 26 25 28 27 29 30 31 33 35 37 34 36 38 41 42 48 39 45 40 44 43 47 50 49 
rbg050b.tw                10065.00           0  2 1 3 4 5 7 9 8 10 12 11 6 13 14 15 17 16 20 18 19 22 24 21 25 26 23 28 27 29 30 31 32 33 35 36 34 38 37 39 46 42 41 40 48 43 45 44 50 47 49 
rbg050c.tw                10158.00           0  2 1 3 4 5 6 46 32 11 15 8 7 9 41 16 17 10 19 18 13 12 20 21 14 24 23 26 22 28 29 27 30 31 34 33 25 35 40 37 36 38 39 48 43 42 47 44 45 50 49 
rbg055a.tw                 3887.00           0  2 3 4 5 1 7 8 6 9 11 13 10 12 15 14 16 17 18 20 21 22 23 19 24 25 26 28 27 30 29 31 32 33 35 36 37 38 34 39 40 41 42 43 45 44 46 51 49 50 47 52 53 48 55 54 
rbg067a.tw                 4798.00           0  2 3 1 4 5 7 8 6 10 9 11 12 14 15 16 17 13 19 20 18 21 23 22 24 25 27 26 28 29 30 32 33 34 35 31 38 36 37 39 45 40 41 43 44 42 46 51 52 48 47 62 49 50 53 61 54 55 57 56 58 59 60 66 65 63 64 67 
rbg086a.tw                 8542.00           0  1 2 3 4 5 7 6 8 9 10 11 12 13 14 15 16 17 19 18 20 21 23 22 25 24 26 27 28 29 30 31 33 32 34 35 37 36 39 38 40 41 42 45 43 44 47 46 49 48 51 50 56 52 53 57 58 54 55 59 61 62 60 63 65 71 64 66 68 67 70 69 72 73 75 74 77 76 82 80 78 79 84 85 81 86 83 
rbg092a.tw                 7421.00           0  2 1 3 4 5 6 7 8 10 9 11 12 14 13 16 15 17 18 19 22 20 21 24 23 26 25 28 27 33 29 30 34 35 31 32 36 38 39 37 40 42 45 41 43 46 44 47 48 49 50 52 51 54 53 57 55 58 59 56 60 61 62 65 63 64 68 76 66 67 73 69 71 72 70 74 75 77 78 84 79 81 80 88 82 86 87 83 89 85 92 91 90 
rbg125a.tw                 8381.00           0  2 3 4 5 1 7 8 6 9 11 13 10 12 15 14 16 17 18 20 21 22 23 19 24 25 26 28 27 30 29 31 32 33 35 36 37 38 34 39 40 41 42 43 45 44 46 47 49 50 48 51 52 54 53 55 57 56 59 58 60 62 61 64 65 63 66 67 69 68 70 71 73 74 72 75 76 77 78 79 80 83 82 81 84 85 87 86 89 88 92 93 94 90 91 96 99 95 97 100 98 101 103 102 105 104 106 107 109 108 111 112 113 110 115 114 116 118 119 117 121 125 122 123 120 124 
rbg010a.tw                  691.00           0  2 3 1 4 6 5 7 8 9 10 
rbg132.tw                  8991.00           0  2 1 4 3 6 5 7 9 8 11 10 12 13 15 14 17 16 19 18 20 21 23 22 25 24 27 26 29 28 31 30 33 34 32 37 36 35 39 38 41 40 43 42 45 44 46 48 49 50 51 47 52 54 53 57 56 55 59 60 58 62 61 63 64 66 65 67 68 69 70 73 74 75 71 80 76 72 77 78 79 81 87 82 84 83 86 85 88 89 90 91 92 93 94 95 96 98 97 99 100 101 102 103 106 105 104 107 108 110 109 111 112 113 115 117 116 114 118 119 120 121 124 122 123 127 125 129 128 126 130 
rbg016a.tw                  969.00           0  1 2 4 3 5 6 7 8 9 11 10 12 13 14 16 15 
rbg132.2.tw                8978.00           0  2 1 4 3 6 5 7 9 8 11 10 12 13 15 14 17 16 19 18 20 21 23 22 25 24 27 26 29 28 31 30 33 34 32 37 36 35 39 38 41 40 43 42 45 44 46 48 49 50 51 47 52 57 53 54 56 55 59 60 58 62 63 64 61 65 80 73 66 75 67 68 69 70 71 74 72 87 76 77 78 79 82 81 84 83 86 85 88 89 90 91 92 93 94 95 96 98 106 105 99 100 97 101 103 104 102 112 107 115 109 117 108 111 110 116 113 114 118 119 127 124 123 129 121 120 128 125 130 122 126 
rbg016b.tw                 1434.00           0  11 3 1 2 5 4 9 6 8 7 10 14 13 12 15 16 
rbg017.2.tw                 924.00           0  2 1 12 10 5 13 3 4 6 9 11 15 14 7 8 
rbg017.tw                   938.00           0  2 1 4 3 5 12 6 10 13 7 9 8 11 15 14 
rbg017a.tw                 4353.00           0  1 2 3 4 7 6 8 9 11 10 5 13 14 15 12 16 17 
rbg019a.tw                 1262.00           0  1 2 3 5 4 7 6 8 11 10 9 13 12 15 14 16 17 19 18 
rbg152.tw                 10459.00           0  3 2 1 4 5 7 6 8 9 10 11 12 15 14 13 16 17 18 19 20 21 22 24 23 25 26 27 29 28 30 31 35 32 33 34 37 36 38 39 40 41 44 42 43 45 46 47 48 49 50 51 52 53 54 55 58 56 57 59 60 63 61 62 65 64 67 68 69 70 66 71 72 73 75 74 77 76 80 79 78 82 81 84 83 85 86 87 89 88 91 90 93 92 95 94 97 96 99 98 100 102 105 101 106 107 108 104 103 110 109 114 117 112 111 113 116 115 119 118 120 121 122 124 125 123 128 127 130 126 129 132 138 131 137 133 134 135 136 141 140 139 142 144 143 147 146 145 148 149 150 
rbg019b.tw                 1955.00           0  4 1 9 7 3 2 5 10 6 8 12 11 13 14 15 17 18 16 19 
rbg019c.tw                 4629.00           0  1 2 3 5 8 10 13 4 6 7 11 12 15 14 9 16 17 18 19 
rbg019d.tw                 1402.00           0  2 3 4 5 1 9 7 6 8 11 13 10 12 14 17 15 19 18 16 
rbg020a.tw                 4689.00           0  1 2 3 4 5 6 7 8 9 10 11 12 13 14 15 16 17 18 19 20 
rbg021.2.tw                4639.00           0  1 2 3 4 5 10 8 9 13 7 11 12 17 19 16 14 15 6 18 
rbg021.3.tw                4620.00           0  1 2 3 5 10 8 9 13 7 11 12 17 19 14 15 16 6 4 18 
rbg021.4.tw                4645.00           0  1 2 3 8 11 12 9 7 17 19 10 14 15 16 5 6 4 18 13 
rbg152.3.tw               10457.00           0  3 2 1 4 5 7 6 8 9 10 11 12 15 14 13 16 17 18 19 20 21 22 24 23 25 26 28 27 29 30 31 35 32 33 37 34 36 38 39 40 41 44 42 43 45 46 47 48 49 50 51 52 53 54 55 58 56 57 59 60 63 61 62 65 64 67 68 69 70 71 72 66 75 73 74 77 76 80 79 78 82 81 84 83 85 86 87 89 88 91 90 93 92 95 94 96 100 98 117 97 99 108 101 103 104 102 106 109 105 107 111 110 112 113 114 115 116 118 119 121 124 137 123 120 140 122 125 126 128 127 130 139 141 129 147 131 136 132 133 134 135 138 143 145 142 150 149 146 144 148 
rbg021.5.tw                4643.00           0  1 2 3 8 11 9 12 7 17 19 10 14 15 16 5 6 4 18 13 
rbg172a.tw                11663.00           0  2 3 4 5 1 7 8 6 9 11 13 10 12 15 14 16 17 18 20 21 22 23 19 24 25 26 28 27 30 29 31 32 33 35 36 37 38 34 39 40 41 42 43 45 44 46 47 49 50 48 51 52 54 53 55 57 56 59 58 60 62 61 64 65 63 66 67 69 68 70 71 73 74 72 75 76 77 78 79 80 83 82 81 84 85 87 86 88 89 90 91 92 93 95 94 97 96 99 98 101 100 103 102 105 104 107 111 106 109 110 108 112 113 115 114 116 118 117 120 119 121 122 123 124 125 126 127 129 128 133 130 131 135 134 132 136 137 138 139 140 141 142 143 145 144 146 147 148 149 150 151 152 161 153 155 166 154 156 157 158 159 160 163 168 162 164 165 170 169 172 167 171 
rbg021.6.tw                4640.00           0  1 3 8 11 12 9 7 2 17 19 10 14 15 5 6 16 4 18 13 
rbg021.7.tw                4653.00           0  3 11 1 9 7 2 17 19 10 14 15 5 6 16 4 8 13 12 18 
rbg021.8.tw                4653.00           0  1 9 7 2 17 19 10 14 15 5 6 16 11 4 8 3 13 12 18 
rbg021.9.tw                4658.00           0  3 9 7 2 17 19 10 14 15 5 6 16 11 4 8 12 13 1 18 
rbg021.tw                  4629.00           0  1 2 3 5 8 10 13 4 6 7 11 12 15 14 9 16 17 18 19 
rbg027a.tw                 5114.00           0  1 2 3 4 5 6 7 8 9 10 11 15 12 13 14 16 17 19 20 18 25 26 21 22 23 24 27 
rbg031a.tw                 1975.00           0  2 1 3 5 4 6 8 7 9 10 12 11 19 13 14 15 16 20 18 17 21 22 23 27 25 24 28 26 29 31 30 
rbg033a.tw                 2118.00           0  3 2 1 4 5 7 6 8 9 10 12 13 11 14 15 16 17 18 19 21 20 25 22 24 26 27 23 28 31 30 29 32 33 
rbg034a.tw                 2365.00           0  1 2 5 3 4 6 12 7 8 10 11 9 13 14 18 21 16 17 15 22 19 23 20 26 27 28 29 24 25 30 31 32 34 33 
rbg035a.2.tw               2412.00           0  2 3 5 4 8 7 12 6 11 13 10 14 15 21 20 18 22 26 28 27 30 31 24 9 17 23 29 32 25 19 16 35 1 34 33 
rbg035a.tw                 2370.00           0  1 2 3 5 4 8 7 12 6 9 11 13 10 14 15 21 16 17 20 18 24 19 26 22 23 25 27 30 28 29 31 35 32 33 34 
rbg038a.tw                 2541.00           0  2 3 1 4 6 5 8 7 9 10 21 12 13 14 15 11 17 16 18 19 22 20 24 23 25 27 26 29 28 30 31 37 36 33 32 34 38 35 
rbg193.tw                 12938.00           0  2 1 4 5 6 7 3 8 9 10 12 11 14 13 17 16 15 19 18 21 20 22 23 24 26 25 28 27 30 29 32 31 34 33 36 35 37 39 42 38 43 44 45 41 40 47 46 49 48 50 51 52 54 53 55 56 57 58 59 60 62 61 64 65 63 66 67 69 70 71 68 74 75 76 77 72 78 73 80 79 81 82 84 86 83 85 87 90 89 88 91 93 92 94 97 95 96 98 99 101 100 103 104 102 106 105 108 110 107 116 109 111 113 114 115 112 117 118 119 120 121 122 123 124 125 126 127 129 128 131 130 132 134 133 136 135 137 138 140 139 141 143 142 144 145 147 148 146 150 149 151 152 153 154 156 155 157 158 161 159 162 160 163 169 166 167 170 164 165 179 168 171 172 173 174 175 181 176 177 178 184 180 182 183 187 185 186 188 189 190 191 
rbg201a.tw                13720.00           0  2 3 4 5 1 7 8 6 9 11 13 10 12 15 14 16 17 18 20 21 22 23 19 24 25 26 28 27 30 29 31 32 33 35 36 37 38 34 39 40 41 42 43 45 44 46 47 49 50 48 51 52 54 53 55 57 56 59 58 60 62 61 64 65 63 66 67 69 68 70 71 73 74 72 75 76 77 78 79 80 83 82 81 84 85 87 86 88 89 90 91 92 93 95 94 97 96 99 98 101 100 103 102 105 104 106 107 109 108 110 115 112 114 111 113 116 118 117 120 119 124 122 123 121 125 126 127 129 128 132 133 130 131 143 134 142 136 135 138 139 137 140 144 146 151 147 141 148 150 152 145 149 153 155 154 156 157 158 159 160 162 161 163 166 165 164 168 167 170 169 171 173 172 175 174 177 176 178 179 180 181 182 183 185 184 186 187 188 189 192 190 193 191 194 195 197 196 198 199 201 200 
rbg193.2.tw               12945.00           0  2 1 4 5 6 7 8 9 3 10 12 11 14 13 17 16 15 19 18 21 20 22 23 24 26 25 28 27 30 29 32 31 34 33 36 37 39 35 40 41 42 43 44 46 38 45 48 47 49 50 51 52 54 53 55 56 57 58 59 60 62 64 61 63 65 66 67 69 70 71 68 73 74 75 76 77 78 80 72 79 81 82 84 86 83 87 85 88 89 90 93 91 92 94 97 95 96 98 99 101 100 103 104 102 106 105 108 110 107 109 111 112 113 114 115 116 117 118 119 120 121 122 123 124 125 126 127 129 128 131 130 132 134 133 136 135 137 138 140 139 141 142 144 145 143 147 148 146 149 152 161 151 150 162 153 154 155 157 158 156 159 160 170 179 163 165 164 166 167 181 168 169 171 173 172 175 174 187 176 177 178 184 180 182 191 186 183 189 190 188 185 
rbg233.tw                 15742.00           0  2 1 3 6 4 5 7 10 8 11 12 9 13 14 15 16 17 18 22 20 23 25 21 24 26 27 19 28 31 30 29 33 32 36 38 35 34 40 37 42 39 41 44 43 45 47 46 49 48 50 51 53 52 54 56 55 57 58 60 61 59 63 62 64 65 66 67 69 68 71 72 70 73 75 74 76 78 77 79 80 81 83 82 84 86 85 88 87 89 90 91 92 94 93 96 95 97 98 99 100 101 102 105 103 106 104 108 107 109 110 111 112 113 115 116 114 117 120 118 121 119 123 125 122 124 126 127 128 130 129 132 133 134 135 131 137 138 139 141 136 142 140 144 143 145 146 147 148 149 151 150 153 154 155 152 157 159 160 156 161 158 162 163 165 164 167 166 168 169 171 172 173 170 175 176 174 177 178 180 179 182 181 185 184 183 187 186 189 190 188 191 193 192 194 195 196 197 198 199 200 201 203 202 204 209 206 205 207 208 210 212 211 214 213 216 215 217 219 220 218 221 223 222 225 224 227 226 230 229 228 231 
rbg233.2.tw               15698.00           0  2 1 3 6 4 5 7 10 8 9 22 11 12 14 13 16 17 15 19 18 20 21 24 23 26 25 27 28 29 30 31 35 36 42 32 33 34 38 39 37 40 41 44 43 45 47 46 49 48 50 51 53 52 54 55 57 58 56 60 61 59 63 62 64 65 66 67 69 68 71 72 73 75 70 76 74 78 77 79 80 83 81 82 84 86 85 88 87 89 90 91 94 92 96 95 97 98 99 100 93 101 102 105 103 106 104 108 107 109 110 111 112 113 115 116 114 117 120 118 121 119 123 125 122 124 126 129 127 130 131 132 133 134 135 128 136 137 138 141 139 142 140 144 143 145 146 147 148 149 151 150 153 154 155 152 157 159 160 156 161 158 162 163 165 164 167 166 169 168 170 171 172 173 176 174 177 175 179 178 182 180 181 185 184 183 187 186 189 190 188 193 191 192 194 195 196 198 197 203 201 209 199 200 202 204 206 205 207 210 208 212 211 214 213 216 215 217 219 220 218 221 223 222 225 224 227 226 230 229 228 231 
